language ESSENCE' 1.0
$ minion Nodes: 9
$ minion TotalTime: 0.000432
$ Savile Row TotalTime: 0.124
letting pain_tuple2 be [[8, 8], 
[8, 8]]
letting pain_tuple1_tuple1 be [[1, 2], 
[1, 1]]
letting pain_tuple1_tuple2 be [[4, 4], 
[4, 4]]
